\* lp *\
Minimize
OBJ: x1 + x10 + x2 + x3 + x4 + x5 + x6 + x7 + x8 + x9
Subject To
_C1: 2 x1 + x2 + x3 - x4 - 2 x5 >= 2
_C2: 2 x1 - x10 - x2 - 2 x3 - x4 + x5 + 2 x6 + x7 + x8 - x9 = -1
_C3: x6 + 2 x7 - x8 + x9 = -1
_C4: x1 + x10 + x2 + x3 + x4 + x5 + x6 + x7 + x8 + x9 = 4
Bounds
 0 <= x1
 0 <= x10
 0 <= x2
 0 <= x3
 0 <= x4
 0 <= x5
 0 <= x6
 0 <= x7
 0 <= x8
 0 <= x9
Generals
x1
x10
x2
x3
x4
x5
x6
x7
x8
x9
End
